14562
0 0 1 0 0 1 0 1 0 0 0 0 0 0 1 0 0 1 1 1 1 0 0 0 1 0 1 0 0 0 
20 17 20 2 20 5 2 24 14 17 24 20 20 20 17 14 14 17 5 17 2 7 5 17 5 20 19 24 5 24 5 5 20 5 20 20 24 24 7 14 17 14 24 18 24 14 7 20 17 14 5 14 14 5 20 20 17 7 7 14 17 5 20 7 17 5 24 17 5 24 20 20 5 17 24 20 26 20 14 24 20 7 20 17 17 17 17 7 20 5 2 24 17 7 17 5 2 2 5 18 18 17 17 5 2 5 17 7 14 14 14 14 2 17 5 5 24 24 24 24 5 20 5 20 18 7 5 24 7 5 17 7 24 5 20 14 7 5 20 17 17 20 20 14 20 5 5 5 2 5 
